8,2	0,0	8,0	17,8	0,0	0,0	0,0	0,0	0,0	6,5
18,9	6,9	0,0	6,9	7,2	0,0	0,0	7,5	0,0	0,0
0,0	0,0	16,9	0,0	14,2	6,1	0,0	0,0	14,3	0,0
19,0	0,0	9,3	0,0	0,0	0,0	16,8	0,0	0,0	0,0
0,0	5,7	0,0	12,9	14,8	0,0	0,0	11,9	0,0	0,0
0,0	10,6	5,3	0,0	11,9	12,5	0,0	0,0	17,0	0,0
0,0	9,5	0,0	18,0	0,0	0,0	12,8	0,0	0,0	12,0
7,8	0,0	7,8	0,0	0,0	0,0	0,0	0,0	0,0	18,3
0,0	9,5	0,0	19,6	18,9	0,0	0,0	6,6	0,0	0,0
0,0	0,0	17,6	0,0	0,0	14,5	7,3	0,0	0,0	13,7
									
2,9	3,7	4,1	4,1	4,5	3,6	4,1	2,9	2,8	4,9
